
List of user-set options:

                                    Name   Value                used
                           compl_inf_tol = 1                     yes
                         constr_viol_tol = 1                     yes
                            dual_inf_tol = 1000                  yes
                           linear_solver = ma97                  yes
                              ma86_small = 1e-30                  no
                                  ma86_u = 0.0001                 no
                              ma97_order = best                  yes
                              ma97_small = 1e-30                 yes
                            ma97_switch1 = at_start              yes
                            ma97_switch2 = od_hd_reuse           yes
                                  ma97_u = 1e-06                 yes
                               ma97_umax = 0.5                   yes
                                max_iter = 1000                  yes
                    max_refinement_steps = 20                    yes
                    min_refinement_steps = 5                     yes
                                 mu_init = 1e-06                 yes
           mu_superlinear_decrease_power = 1.25                  yes
                   nlp_scaling_min_value = 1e-08                 yes
                        option_file_name = Preset_Case:_442_NCP.opt  yes
                             output_file = ./tmp/Preset_Case:_442_NCP.output  yes
                      print_user_options = yes                   yes
        required_infeasibility_reduction = 1                      no
                                     tol = 1e-08                 yes
                   warm_start_bound_frac = 1e-20                 yes
                   warm_start_bound_push = 1e-20                 yes
                   warm_start_init_point = yes                   yes
              warm_start_mult_bound_push = 1e-20                 yes
                warm_start_mult_init_max = 1e+40                 yes
             warm_start_slack_bound_frac = 1e-20                 yes
             warm_start_slack_bound_push = 1e-20                 yes

******************************************************************************
This program contains Ipopt, a library for large-scale nonlinear optimization.
 Ipopt is released as open source code under the Eclipse Public License (EPL).
         For more information visit http://projects.coin-or.org/Ipopt
******************************************************************************

This is Ipopt version 3.12.10, running with linear solver ma97.

Number of nonzeros in equality constraint Jacobian...:   117167
Number of nonzeros in inequality constraint Jacobian.:      213
Number of nonzeros in Lagrangian Hessian.............:    47513

Total number of variables............................:    29977
                     variables with only lower bounds:    11312
                variables with lower and upper bounds:    15135
                     variables with only upper bounds:        0
Total number of equality constraints.................:    29864
Total number of inequality constraints...............:       25
        inequality constraints with only lower bounds:        4
   inequality constraints with lower and upper bounds:        0
        inequality constraints with only upper bounds:       21

iter    objective    inf_pr   inf_du lg(mu)  ||d||  lg(rg) alpha_du alpha_pr  ls
   0 -2.1370450e-01 7.17e-02 2.00e+00  -6.0 0.00e+00    -  0.00e+00 0.00e+00   0
In iteration 0, 9 Slacks too small, adjusting variable bounds
   1 -2.1370450e-01 7.17e-02 5.18e+02  -6.0 1.06e+10    -  5.17e-14 4.44e-19h  1
   2 -2.1370426e-01 7.17e-02 5.19e+02  -6.0 6.46e+01    -  1.08e-06 7.41e-06f  1
   3 -2.1370419e-01 7.17e-02 5.18e+02  -6.0 6.42e+01    -  1.52e-02 2.38e-06h  2
   4 -2.1370244e-01 7.17e-02 5.18e+02  -6.0 6.74e+01    -  6.44e-04 4.92e-05h  1
   5 -2.1328649e-01 7.07e-02 5.11e+02  -6.0 6.38e+01    -  4.84e-03 1.38e-02h  1
   6 -2.1287717e-01 6.97e-02 5.03e+02  -6.0 4.89e+01    -  1.72e-02 1.44e-02h  1
   7 -2.1214566e-01 6.79e-02 4.94e+02  -6.0 5.24e+01    -  3.99e-03 2.55e-02h  4
   8 -2.1165398e-01 6.68e-02 4.85e+02  -6.0 4.49e+01    -  2.16e-02 1.61e-02h  5
   9 -2.1099308e-01 6.54e-02 4.75e+02  -6.0 4.23e+01    -  1.59e-02 2.20e-02h  5
iter    objective    inf_pr   inf_du lg(mu)  ||d||  lg(rg) alpha_du alpha_pr  ls
  10 -2.1014837e-01 6.35e-02 4.62e+02  -6.0 3.95e+01    -  2.70e-02 2.87e-02h  5
  11 -2.0957887e-01 6.22e-02 4.49e+02  -6.0 3.70e+01    -  6.59e-02 1.99e-02h  6
  12 -2.0899457e-01 6.09e-02 4.36e+02  -6.0 3.73e+01    -  1.04e-01 2.12e-02h  6
  13 -2.0838574e-01 5.96e-02 4.26e+02  -6.0 4.90e+01    -  2.95e-02 2.24e-02h  6
  14 -2.0778976e-01 5.82e-02 4.10e+02  -6.0 4.47e+01    -  1.59e-01 2.33e-02h  6
  15 -2.0668394e-01 5.53e-02 3.91e+02  -6.0 4.38e+01    -  2.15e-02 4.84e-02h  5
  16 -2.0567828e-01 5.27e-02 3.64e+02  -6.0 3.94e+01    -  1.81e-01 4.81e-02h  5
  17 -1.9199689e-01 2.07e+00 5.08e+02  -6.0 3.21e+01    -  1.11e-01 7.48e-01w  1
  18 -1.9214547e-01 1.20e+00 4.02e+03  -6.0 1.51e+01    -  1.21e-04 4.32e-01w  1
  19 -1.8515334e-01 9.99e-02 4.84e+02  -6.0 6.63e+01    -  1.78e-01 1.00e+00w  1
iter    objective    inf_pr   inf_du lg(mu)  ||d||  lg(rg) alpha_du alpha_pr  ls
  20 -1.8499825e-01 1.86e-02 2.24e+02  -6.0 2.63e+00    -  7.82e-01 1.00e+00h  1
  21 -1.8568258e-01 8.31e-04 5.87e+00  -6.0 2.96e+00    -  9.25e-01 1.00e+00h  1
  22 -1.9205305e-01 8.00e-02 1.37e+01  -6.0 3.65e+01    -  1.73e-01 8.14e-01h  1
  23 -1.9253055e-01 4.43e-02 4.35e+01  -6.0 8.12e+00    -  6.71e-04 4.41e-01h  1
  24 -1.9338353e-01 1.41e-02 4.63e+01  -6.0 6.31e+00    -  2.36e-01 1.00e+00F  1
  25 -1.9339665e-01 1.19e-02 3.26e+01  -6.0 5.17e-02  -2.0 5.47e-01 1.59e-01h  1
  26 -1.9339445e-01 6.76e-03 1.44e+01  -6.0 2.22e-02  -1.6 9.48e-01 4.31e-01h  1
  27 -1.9340879e-01 8.50e-05 5.56e-01  -6.0 3.01e-02  -2.1 8.27e-01 1.00e+00f  1
  28 -1.9343801e-01 3.59e-05 1.36e+00  -6.0 6.31e-02  -2.5 1.00e+00 6.86e-01h  1
  29 -1.9348033e-01 4.85e-04 1.78e+01  -6.0 1.52e-01  -3.0 1.00e+00 5.80e-01f  1
iter    objective    inf_pr   inf_du lg(mu)  ||d||  lg(rg) alpha_du alpha_pr  ls
  30 -1.9351748e-01 2.50e-04 2.09e+01  -6.0 1.99e-01  -3.5 4.92e-02 5.04e-01f  1
  31 -1.9360556e-01 2.52e-04 3.25e+01  -6.0 5.94e-01  -4.0 1.00e+00 4.44e-01f  1
  32 -1.9409108e-01 9.01e-03 1.35e+03  -6.0 1.69e+00  -4.4 3.42e-04 9.22e-01f  1
  33 -1.9443880e-01 1.24e-02 9.82e+02  -6.0 5.18e+00  -4.9 5.35e-01 2.73e-01f  1
  34 -1.9555629e-01 2.50e-01 6.05e+02  -6.0 1.06e+01  -5.4 9.75e-01 3.84e-01f  1
  35 -1.9568172e-01 2.50e-01 5.91e+02  -6.0 2.65e+01  -5.9 3.12e-01 2.20e-02h  6
  36 -1.9578187e-01 2.52e-01 5.87e+02  -6.0 7.13e+01  -6.3 1.07e-01 7.56e-03h  6
  37 -1.9585648e-01 2.54e-01 5.85e+02  -6.0 1.97e+02  -6.8 7.24e-02 2.37e-03h  6
  38 -1.9594881e-01 2.56e-01 5.82e+02  -6.0 7.83e+01  -6.4 6.95e-01 6.43e-03h  6
  39 -1.9603180e-01 2.59e-01 5.80e+02  -6.0 1.92e+02  -6.9 2.92e-02 2.75e-03h  6
iter    objective    inf_pr   inf_du lg(mu)  ||d||  lg(rg) alpha_du alpha_pr  ls
  40 -1.9894056e-01 3.82e+00 4.68e+02  -6.0 8.23e+01  -6.4 1.30e-01 1.94e-01h  1
  41 -1.9974430e-01 3.83e+00 4.49e+02  -6.0 1.45e+02  -6.9 5.48e-02 4.02e-02h  1
  42 -2.0318444e-01 7.58e+00 2.83e+02  -6.0 5.16e+01  -6.5 7.95e-01 3.69e-01h  1
  43 -2.0374171e-01 7.37e+00 2.76e+02  -6.0 3.23e+02  -7.0 9.21e-02 2.54e-02h  1
  44 -2.0545450e-01 5.64e+00 1.97e+02  -6.0 4.95e+01  -6.5 6.05e-01 2.86e-01h  1
  45 -2.0560278e-01 4.89e+00 1.71e+02  -6.0 1.93e+01  -6.1 1.00e+00 1.33e-01h  1
  46 -2.0659652e-01 3.00e+00 1.13e+02  -6.0 4.75e+01  -6.6 1.00e+00 3.39e-01h  1
  47 -2.0735450e-01 7.01e-01 1.16e+01  -6.0 1.65e+01  -6.2 1.00e+00 9.50e-01h  1
  48 -2.0906382e-01 2.30e+00 3.72e+01  -6.0 4.12e+01  -6.7 1.00e+00 7.33e-01h  1
  49 -2.0986935e-01 1.27e+00 2.52e+00  -6.0 1.58e+01  -6.2 1.00e+00 1.00e+00h  1
iter    objective    inf_pr   inf_du lg(mu)  ||d||  lg(rg) alpha_du alpha_pr  ls
  50 -2.0995331e-01 1.23e+00 1.46e+01  -6.0 4.03e+01  -6.7 9.23e-01 3.85e-02h  1
  51 -2.1069703e-01 1.14e+00 1.21e+01  -6.0 1.54e+02  -7.2 1.31e-01 1.11e-01h  1
  52 -2.1088014e-01 4.83e-01 7.23e+00  -6.0 4.30e+01  -6.8 4.59e-01 5.65e-01h  1
  53 -2.1108740e-01 4.27e-01 2.79e+01  -6.0 2.44e+01  -6.3 7.00e-01 1.54e-01h  1
  54 -2.1146044e-01 4.29e-01 1.95e+01  -6.0 5.30e+01  -6.8 1.00e+00 1.56e-01h  1
  55 -2.1231055e-01 6.31e-01 2.35e+01  -6.0 9.95e+01  -7.3 7.45e-01 4.51e-01h  1
  56 -2.1273920e-01 2.47e-01 7.66e-01  -6.0 2.99e+01  -6.9 1.00e+00 9.32e-01h  1
  57 -2.1439818e-01 2.44e+00 1.00e+01  -6.0 1.81e+02  -7.3 3.73e-01 1.00e+00h  1
  58 -2.1495708e-01 2.43e+00 3.65e+01  -6.0 2.19e+02  -6.9 2.29e-01 1.12e-01h  1
  59 -2.1512351e-01 2.04e+00 2.15e+03  -6.0 6.29e+01  -7.4 3.73e-02 1.40e-01h  1
iter    objective    inf_pr   inf_du lg(mu)  ||d||  lg(rg) alpha_du alpha_pr  ls
  60 -2.1512352e-01 2.04e+00 2.15e+03  -6.0 4.99e+00   0.5 1.08e-03 2.75e-05h  1
  61 -2.1512356e-01 2.04e+00 2.15e+03  -6.0 5.07e+00  -0.0 2.43e-03 1.16e-04h  1
  62 -2.1512457e-01 2.03e+00 2.14e+03  -6.0 4.97e+00  -0.5 4.94e-03 1.49e-03h  1
  63 -2.1512675e-01 2.03e+00 2.14e+03  -6.0 4.81e+00  -1.0 6.31e-03 2.24e-03h  1
  64 -2.1512739e-01 2.03e+00 2.13e+03  -6.0 4.69e+00  -1.4 1.20e-02 7.98e-04h  1
  65 -2.1512801e-01 2.01e+00 2.12e+03  -6.0 5.37e+00  -1.9 1.07e-02 6.48e-03h  1
  66 -2.1512610e-01 2.00e+00 2.10e+03  -6.0 5.08e+00  -2.4 1.42e-02 8.40e-03h  1
  67 -2.1511387e-01 1.91e+00 2.01e+03  -6.0 5.20e+00  -2.9 4.74e-02 4.45e-02h  1
  68 -2.1510530e-01 1.82e+00 1.91e+03  -6.0 6.16e+00  -3.4 1.42e-01 4.82e-02h  1
  69 -2.1510588e-01 2.49e-01 8.17e+02  -6.0 7.15e+00  -3.8 6.53e-01 8.63e-01h  1
iter    objective    inf_pr   inf_du lg(mu)  ||d||  lg(rg) alpha_du alpha_pr  ls
  70 -2.1516507e-01 2.20e-01 7.34e+02  -6.0 5.29e+00  -4.3 1.15e-01 1.25e-01h  1
  71 -2.1530503e-01 1.26e-01 4.23e+02  -6.0 2.26e+00  -4.8 3.04e-01 4.26e-01h  1
  72 -2.1535150e-01 4.42e-03 1.33e+01  -6.0 2.29e+00  -5.3 1.00e+00 9.60e-01h  1
  73 -2.1542779e-01 3.53e-03 1.67e+01  -6.0 4.13e+00  -5.7 1.00e+00 4.24e-01h  1
  74 -2.1554233e-01 7.28e-03 3.91e+01  -6.0 8.25e+00  -6.2 1.00e+00 4.73e-01f  1
  75 -2.1566632e-01 1.11e-02 7.67e+01  -6.0 1.37e+01  -6.7 1.00e+00 3.10e-01h  1
  76 -2.1577949e-01 1.18e-02 1.06e+02  -6.0 3.90e+01  -7.2 1.00e+00 1.63e-01h  1
  77 -2.1605007e-01 1.15e-02 1.03e+02  -6.0 1.13e+02  -7.7 1.00e+00 1.95e-01h  1
  78 -2.1691954e-01 2.36e-01 7.35e+01  -6.0 3.39e+02  -8.1 6.79e-01 3.26e-01h  1
  79 -2.2137730e-01 5.21e+00 9.72e+01  -6.0 5.67e+02  -8.6 1.00e+00 9.28e-01h  1
iter    objective    inf_pr   inf_du lg(mu)  ||d||  lg(rg) alpha_du alpha_pr  ls
  80 -2.2409656e-01 2.34e+01 5.75e+01  -6.0 2.44e+03  -9.1 4.76e-04 4.29e-01h  1
  81 -2.2447113e-01 2.11e+01 1.50e+04  -6.0 1.31e+03  -8.7 4.21e-01 6.00e-01h  1
  82 -2.2447898e-01 2.09e+01 1.64e+04  -6.0 4.25e+02  -8.2 1.13e-01 5.75e-03h  1
  83 -2.2448045e-01 2.07e+01 1.63e+04  -6.0 8.68e+00  -4.2 1.07e-02 9.54e-03h  1
  84 -2.2448011e-01 2.07e+01 2.43e+04  -6.0 3.61e+00  -4.7 1.27e-01 2.61e-03h  1
  85 -2.2432797e-01 3.90e+00 2.86e+04  -6.0 3.60e+00  -5.1 1.72e-01 8.12e-01h  1
  86 -2.2432178e-01 3.13e+00 2.09e+04  -6.0 6.70e-01  -3.8 3.14e-01 1.98e-01h  1
  87 -2.2430989e-01 1.88e+00 6.70e+03  -6.0 5.38e-01  -3.4 9.26e-01 4.01e-01h  1
  88 -2.2429454e-01 1.25e-04 2.30e+02  -6.0 3.22e-01  -3.9 1.00e+00 1.00e+00h  1
  89 -2.2430613e-01 1.69e-04 5.99e+01  -6.0 2.13e-01  -4.3 1.00e+00 1.00e+00h  1
iter    objective    inf_pr   inf_du lg(mu)  ||d||  lg(rg) alpha_du alpha_pr  ls
  90 -2.2433274e-01 1.15e-03 8.56e+00  -6.0 6.12e-01  -4.8 1.00e+00 1.00e+00h  1
  91 -2.2440229e-01 8.41e-03 2.41e+02  -6.0 2.01e+00  -5.3 1.00e+00 1.00e+00h  1
  92 -2.2461471e-01 6.62e-02 5.54e+01  -6.0 5.82e+00  -5.8 1.00e+00 1.00e+00h  1
  93 -2.2522908e-01 3.55e-01 1.24e+03  -6.0 1.44e+01  -6.3 4.76e-01 1.00e+00h  1
  94 -2.2614797e-01 9.75e-01 8.45e+01  -6.0 4.61e+01  -6.7 3.60e-01 5.17e-01h  1
  95 -2.2639003e-01 1.30e+00 1.19e+02  -6.0 2.50e+01  -7.2 8.42e-01 1.00e+00f  1
  96 -2.2603939e-01 1.22e+00 8.66e+01  -6.0 2.88e+01  -5.9 1.74e-01 2.85e-01h  1
  97 -2.2607538e-01 1.20e+00 8.45e+01  -6.0 3.05e+01  -6.4 2.93e-03 2.18e-02h  1
  98 -2.2592924e-01 1.14e+00 8.32e+01  -6.0 7.56e+01  -5.9 4.88e-02 5.60e-02h  1
  99 -2.2607302e-01 1.09e+00 7.88e+01  -6.0 6.30e+01  -6.4 9.16e-03 4.61e-02h  1
iter    objective    inf_pr   inf_du lg(mu)  ||d||  lg(rg) alpha_du alpha_pr  ls
 100 -2.2611064e-01 8.64e-01 6.16e+01  -6.0 4.36e+01  -6.0 1.37e-01 2.05e-01h  1
 101 -2.2696323e-01 1.36e+00 5.07e+01  -6.0 9.34e+01  -6.5 5.81e-02 1.96e-01h  1
 102 -2.2694948e-01 1.29e+00 6.55e+01  -6.0 1.67e+01  -6.9 1.00e+00 5.39e-02h  1
 103 -2.2730250e-01 3.99e-01 6.25e+01  -6.0 4.35e+01  -7.4 1.00e+00 3.94e-01h  1
 104 -2.2758702e-01 2.84e-01 3.98e+01  -6.0 1.29e+02  -7.9 1.00e+00 2.78e-01h  1
 105 -2.2825256e-01 5.05e-01 2.65e+01  -6.0 3.54e+02  -8.4 9.76e-01 3.02e-01h  1
 106 -2.2929695e-01 1.60e+00 3.63e+01  -6.0 2.58e+03  -8.8 1.03e-01 1.09e-01h  1
 107 -2.3062324e-01 2.44e+00 3.14e+01  -6.0 5.51e+02  -8.4 8.07e-01 4.48e-01h  1
 108 -2.3089825e-01 2.19e+00 2.51e+01  -6.0 2.13e+02  -8.0 1.00e+00 1.91e-01h  1
 109 -2.3128450e-01 1.98e+00 2.12e+01  -6.0 5.32e+02  -8.5 2.60e-01 9.77e-02h  1
iter    objective    inf_pr   inf_du lg(mu)  ||d||  lg(rg) alpha_du alpha_pr  ls
 110 -2.3184136e-01 1.19e+00 7.59e+00  -6.0 1.74e+02  -8.0 8.13e-01 4.12e-01h  1
 111 -2.3274325e-01 1.60e+00 7.76e+00  -6.0 9.62e+02  -8.5 1.84e-01 1.56e-01h  1
 112 -2.3420026e-01 1.21e+00 5.60e+00  -6.0 2.30e+02  -8.1 7.78e-01 7.46e-01h  1
 113 -2.3554645e-01 4.13e+00 1.04e+01  -6.0 2.28e+03  -8.6 9.75e-02 1.43e-01h  1
 114 -2.3657340e-01 6.64e+00 1.65e+01  -6.0 6.51e+02  -8.1 2.87e-01 2.39e-01h  1
 115 -2.3824911e-01 9.71e+00 7.74e+01  -6.0 8.17e+02  -8.6 3.92e-01 2.99e-01h  1
 116 -2.3829849e-01 9.60e+00 1.91e+02  -6.0 2.79e+02  -8.2 2.05e-01 1.62e-02h  1
 117 -2.3891860e-01 8.02e+00 1.84e+02  -6.0 7.71e+02  -8.7 4.59e-02 1.57e-01h  1
 118 -2.3899917e-01 7.71e+00 1.80e+02  -6.0 2.46e+02  -8.2 1.35e-02 3.90e-02h  1
 119 -2.3916585e-01 6.85e+00 1.63e+02  -6.0 1.39e+02  -7.8 6.57e-02 1.10e-01h  1
iter    objective    inf_pr   inf_du lg(mu)  ||d||  lg(rg) alpha_du alpha_pr  ls
 120 -2.3955787e-01 8.72e+00 1.47e+02  -6.0 2.65e+02  -8.3 8.86e-02 1.55e-01h  1
 121 -2.4007012e-01 7.88e+00 1.34e+02  -6.0 1.03e+03  -8.8 1.77e-01 8.09e-02h  1
 122 -2.4041715e-01 6.85e+00 1.09e+02  -6.0 3.32e+02  -8.4 2.10e-01 1.34e-01h  1
 123 -2.4183862e-01 7.30e+00 9.24e+01  -6.0 1.07e+03  -8.8 1.72e-02 2.10e-01h  1
 124 -2.4438057e-01 6.85e+00 1.67e+02  -6.0 4.21e+02  -8.4 6.44e-04 1.00e+00h  1
 125 -2.4522170e-01 3.59e+00 5.93e+01  -6.0 1.39e+02  -8.0 3.51e-01 8.28e-01h  1
 126 -2.4535607e-01 3.54e+00 5.43e+01  -6.0 1.03e+02  -6.6 7.03e-02 3.58e-02h  1
 127 -2.4536516e-01 3.08e+00 3.61e+01  -6.0 1.71e+01  -7.1 6.54e-01 1.29e-01h  1
 128 -2.4556515e-01 1.48e+00 1.48e+01  -6.0 4.46e+01  -7.6 5.84e-01 5.95e-01h  1
 129 -2.4596378e-01 5.68e-01 1.48e+00  -6.0 1.12e+02  -8.1 8.36e-01 8.65e-01h  1
iter    objective    inf_pr   inf_du lg(mu)  ||d||  lg(rg) alpha_du alpha_pr  ls
 130 -2.4586856e-01 7.30e-01 4.64e+01  -6.0 6.69e+01  -7.7 2.45e-01 1.29e-01h  1
 131 -2.4596184e-01 4.86e-01 3.31e+01  -6.0 7.82e+01  -8.1 9.59e-01 3.29e-01h  1
 132 -2.4627460e-01 1.16e+00 1.02e+02  -6.0 1.77e+02  -8.6 8.70e-01 7.83e-01h  1
 133 -2.4648687e-01 2.13e-01 1.36e+02  -6.0 7.28e+01  -8.2 1.00e+00 1.00e+00h  1
 134 -2.4662029e-01 4.65e-01 3.83e+02  -6.0 6.91e+02  -8.7 2.65e-01 1.30e-01h  1
 135 -2.4723717e-01 4.44e+00 1.88e+02  -6.0 4.56e+02  -9.1 6.21e-01 1.00e+00h  1
 136 -2.4751233e-01 4.97e+00 3.23e+02  -6.0 2.00e+02  -8.7 9.16e-02 6.60e-01h  1
 137 -2.4758149e-01 9.98e+00 3.11e+02  -6.0 3.36e+03  -9.2 6.17e-02 1.99e-02h  1
 138 -2.4768330e-01 9.91e+00 3.08e+02  -6.0 1.26e+04  -9.7 1.28e-02 6.87e-03h  1
 139 -2.4764270e-01 1.14e+01 2.99e+02  -6.0 2.92e+02  -8.3 1.39e-02 4.24e-02f  3
iter    objective    inf_pr   inf_du lg(mu)  ||d||  lg(rg) alpha_du alpha_pr  ls
 140 -2.4780044e-01 2.22e+00 1.56e+01  -6.0 3.65e+01  -7.9 8.82e-01 1.00e+00h  1
 141 -2.4803351e-01 7.07e-01 1.03e+02  -6.0 1.09e+02  -8.4 1.46e-01 1.00e+00h  1
 142 -2.4803845e-01 3.49e-01 1.10e+02  -6.0 8.33e-02  -4.3 1.00e+00 5.06e-01h  1
 143 -2.4804116e-01 1.57e-01 4.12e+01  -6.0 1.02e-01  -4.8 6.99e-01 5.50e-01h  1
 144 -2.4805520e-01 1.26e-02 9.20e+00  -6.0 4.06e+00  -5.3 1.00e+00 1.00e+00h  1
 145 -2.4805373e-01 7.65e-04 5.87e+00  -6.0 8.20e-01  -5.8 1.00e+00 1.00e+00h  1
 146 -2.4805585e-01 6.54e-04 3.18e+00  -6.0 8.70e-01  -6.3 8.70e-01 9.91e-01H  1
 147 -2.4808317e-01 2.76e-02 3.73e+00  -6.0 6.23e+00  -6.7 1.00e+00 1.00e+00h  1
 148 -2.4811585e-01 4.28e-02 5.89e+00  -6.0 1.77e+01  -7.2 3.59e-01 3.58e-01h  1
 149 -2.4818221e-01 1.15e-01 6.16e+01  -6.0 6.05e+01  -7.7 6.64e-01 1.97e-01h  1
iter    objective    inf_pr   inf_du lg(mu)  ||d||  lg(rg) alpha_du alpha_pr  ls
 150 -2.4841232e-01 7.36e-01 2.23e+01  -6.0 8.57e+01  -8.2 2.96e-01 4.64e-01h  1
 151 -2.4850085e-01 2.65e+00 2.10e+01  -6.0 2.12e+02  -8.6 6.74e-02 1.89e-01h  1
 152 -2.4854443e-01 2.55e+00 3.29e+01  -6.0 9.38e+01  -7.3 5.34e-03 6.65e-02h  1
 153 -2.4848601e-01 2.58e+00 1.87e+01  -6.0 4.00e+02  -7.8 1.33e-07 1.78e-02f  1
 154 -2.4849826e-01 2.63e+00 1.87e+01  -6.0 3.23e+04  -7.4 2.22e-08 8.23e-05f  2
 155 -2.4852965e-01 6.20e-01 6.79e+00  -6.0 3.58e+00  -6.9 7.57e-01 7.83e-01h  1
 156 -2.4863686e-01 3.72e-01 2.29e+01  -6.0 3.33e+01  -7.4 3.17e-01 4.41e-01f  1
 157 -2.4869961e-01 8.43e-02 1.23e+01  -6.0 5.82e+00  -7.0 5.63e-01 1.00e+00f  1
 158 -2.4870898e-01 1.79e-02 2.17e-01  -6.0 2.16e+00  -6.6 1.00e+00 1.00e+00h  1
 159 -2.4870717e-01 6.85e-02 2.24e-01  -6.0 1.04e+01  -7.0 1.00e+00 1.00e+00h  1
iter    objective    inf_pr   inf_du lg(mu)  ||d||  lg(rg) alpha_du alpha_pr  ls
 160 -2.4871292e-01 1.92e-02 1.12e-02  -6.0 4.70e+00  -6.6 1.00e+00 1.00e+00h  1
 161 -2.4871016e-01 1.04e+00 8.37e-01  -6.0 3.37e+01  -7.1 8.22e-01 1.00e+00h  1
 162 -2.4890654e-01 4.91e+00 3.62e+00  -6.0 3.71e+01  -6.7 8.71e-01 9.37e-01h  1
 163 -2.4895403e-01 4.02e+00 4.82e+00  -6.0 2.14e+01  -7.1 7.67e-01 2.53e-01h  1
 164 -2.4905245e-01 5.32e+00 1.28e+01  -6.0 8.31e+01  -7.6 3.68e-01 7.22e-02h  1
 165 -2.4926607e-01 2.05e+00 5.27e+00  -6.0 4.68e+01  -8.1 1.00e+00 6.20e-01h  1
 166 -2.4969527e-01 5.77e-01 1.30e+00  -6.0 1.78e+02  -8.6 1.00e+00 9.37e-01h  1
 167 -2.5078675e-01 5.63e+00 1.36e+01  -6.0 6.68e+02  -9.1 1.00e+00 7.67e-01h  1
 168 -2.5255040e-01 2.13e+01 5.42e+01  -6.0 3.68e+03  -9.5 2.63e-02 2.42e-01h  1
 169 -2.5248802e-01 2.02e+01 5.15e+01  -6.0 2.52e+03 -10.0 1.45e-01 5.05e-02h  1
iter    objective    inf_pr   inf_du lg(mu)  ||d||  lg(rg) alpha_du alpha_pr  ls
 170 -2.5362408e-01 2.18e+01 5.53e+01  -6.0 2.31e+03  -9.6 1.51e-02 2.20e-01h  1
 171 -2.5425125e-01 2.25e+01 5.67e+01  -6.0 3.73e+03 -10.1 9.25e-02 9.10e-02h  1
 172 -2.5460163e-01 2.18e+01 5.51e+01  -6.0 7.42e+04    -  3.67e-02 2.98e-02h  1
 173 -2.5474608e-01 2.10e+01 7.11e+01  -6.0 1.54e+04    -  1.59e-01 3.86e-02h  1
 174 -2.5529731e-01 1.67e+01 8.47e+01  -6.0 2.27e+03 -10.5 9.21e-02 2.04e-01h  1
 175 -2.5597136e-01 2.87e+01 5.33e+01  -6.0 4.28e+03 -11.0 3.94e-01 3.12e-01h  1
 176 -2.5606854e-01 4.03e+01 8.94e+01  -6.0 2.11e+04 -11.5 1.24e-01 4.80e-02h  1
 177 -2.5653321e-01 4.08e+01 6.77e+02  -6.0 4.71e+03    -  1.33e-01 2.92e-01h  1
 178 -2.5660404e-01 4.17e+01 8.99e+02  -6.0 8.41e+03 -11.1 1.93e-02 6.66e-02h  1
 179 -2.5689905e-01 3.13e+01 1.32e+03  -6.0 2.31e+03    -  1.99e-02 2.58e-01h  1
iter    objective    inf_pr   inf_du lg(mu)  ||d||  lg(rg) alpha_du alpha_pr  ls
 180 -2.5698446e-01 2.82e+01 1.23e+03  -6.0 1.80e+03    -  2.99e-01 1.13e-01h  1
 181 -2.5712271e-01 2.11e+01 9.57e+02  -6.0 1.51e+03    -  1.12e-01 2.53e-01h  1
 182 -2.5717390e-01 1.82e+01 1.07e+03  -6.0 1.11e+03    -  5.31e-02 1.38e-01h  1
 183 -2.5722705e-01 1.56e+01 9.45e+02  -6.0 1.26e+03    -  1.66e-01 1.43e-01h  1
 184 -2.5727241e-01 1.40e+01 6.74e+02  -6.0 2.12e+01  -7.0 6.82e-02 9.84e-02h  1
 185 -2.5735989e-01 1.07e+01 1.69e+03  -6.0 2.02e+03    -  1.05e-03 2.35e-01f  1
 186 -2.5735819e-01 1.01e+01 1.64e+03  -6.0 3.78e+03    -  8.74e-04 5.85e-02h  1
 187 -2.5739463e-01 9.46e+00 1.58e+03  -6.0 5.37e+01  -7.5 2.73e-02 6.37e-02h  1
 188 -2.5738740e-01 9.26e+00 1.90e+03  -6.0 5.07e+03    -  1.63e-04 2.09e-02h  1
 189 -2.5738889e-01 9.26e+00 1.97e+03  -6.0 1.52e+06    -  2.26e-09 3.34e-05f  1
iter    objective    inf_pr   inf_du lg(mu)  ||d||  lg(rg) alpha_du alpha_pr  ls
 190 -2.5738747e-01 9.26e+00 2.01e+03  -6.0 5.85e+05    -  1.04e-08 2.03e-05f  2
 191 -2.5739263e-01 9.19e+00 1.51e+03  -6.0 7.52e+01  -8.0 5.78e-02 7.14e-03h  1
 192 -2.5744671e-01 8.11e+00 1.86e+03  -6.0 1.62e+03    -  5.90e-01 1.18e-01f  1
 193 -2.5750693e-01 6.96e+00 1.95e+03  -6.0 1.23e+03    -  7.05e-02 1.42e-01h  1
 194 -2.5759396e-01 5.45e+00 5.45e+04  -6.0 1.18e+03    -  1.48e-02 2.17e-01h  1
 195 -2.5760779e-01 5.23e+00 5.24e+04  -6.0 1.57e+03    -  1.12e-01 3.96e-02h  1
 196 -2.5764939e-01 4.60e+00 4.61e+04  -6.0 1.54e+03    -  3.79e-01 1.21e-01h  1
 197 -2.5771704e-01 4.03e+00 3.68e+04  -6.0 1.51e+03    -  1.29e-01 2.03e-01h  1
 198 -2.5779637e-01 4.99e+00 2.81e+04  -6.0 1.48e+03    -  4.68e-02 2.38e-01h  1
 199 -2.5791221e-01 7.04e+00 1.86e+04  -6.0 1.46e+03    -  5.54e-02 3.38e-01h  1
iter    objective    inf_pr   inf_du lg(mu)  ||d||  lg(rg) alpha_du alpha_pr  ls
 200 -2.5798535e-01 7.03e+00 1.49e+04  -6.0 1.52e+03    -  1.62e-02 2.02e-01h  1
 201 -2.5801258e-01 6.71e+00 1.42e+04  -6.0 6.45e+01  -8.5 4.14e-02 4.51e-02h  1
 202 -2.5801615e-01 6.77e+00 1.41e+04  -6.0 1.54e+04    -  9.55e-02 5.10e-03h  1
 203 -2.5801929e-01 6.59e+00 1.31e+04  -6.0 2.02e+03    -  2.38e-02 7.14e-02h  1
 204 -2.5803752e-01 4.53e+00 8.94e+03  -6.0 8.44e+02    -  6.85e-02 3.21e-01h  1
 205 -2.5799424e-01 4.60e-02 5.89e+03  -6.0 1.16e+01  -8.0 2.62e-02 1.00e+00h  1
 206 -2.5802577e-01 2.44e-02 8.02e+02  -6.0 6.72e+00  -8.5 1.00e+00 7.49e-01H  1
 207 -2.5802244e-01 4.77e-01 7.72e+01  -6.0 1.98e+02    -  8.34e-01 9.04e-01f  1
 208 -2.5802362e-01 4.46e-01 7.39e+01  -6.0 1.11e+02    -  1.00e+00 6.55e-02h  1
 209 -2.5800538e-01 4.08e+00 1.37e+00  -6.0 5.28e+02    -  1.00e+00 1.00e+00h  1
iter    objective    inf_pr   inf_du lg(mu)  ||d||  lg(rg) alpha_du alpha_pr  ls
 210 -2.5797570e-01 1.18e+01 6.88e+00  -6.0 1.42e+03    -  8.54e-01 5.95e-01h  1
 211 -2.5798173e-01 1.04e+01 3.17e+01  -6.0 3.84e+03    -  5.73e-02 1.00e+00H  1
 212 -2.5798714e-01 3.72e-02 6.43e-02  -6.0 4.09e+01  -9.0 1.00e+00 1.00e+00h  1
 213 -2.5794752e-01 1.24e+01 8.00e-01  -6.0 9.33e+02    -  1.00e+00 1.00e+00h  1
 214 -2.5794409e-01 2.43e-01 2.85e+00  -6.0 1.21e+02    -  4.34e-01 1.00e+00h  1
 215 -2.5794920e-01 8.10e-02 5.82e-03  -6.0 7.67e+01    -  1.00e+00 1.00e+00h  1
 216 -2.5794935e-01 2.44e-04 1.17e-05  -6.0 4.13e+00    -  1.00e+00 1.00e+00h  1
 217 -2.5794935e-01 4.23e-10 2.71e-11  -6.0 1.38e-03    -  1.00e+00 1.00e+00h  1
 218 -2.5846054e-01 3.50e+00 6.43e+00  -7.5 1.80e+03    -  2.75e-01 2.80e-01f  1
 219 -2.5846744e-01 3.09e+00 1.10e+02  -7.5 1.43e+00  -4.9 1.89e-01 1.17e-01h  1
iter    objective    inf_pr   inf_du lg(mu)  ||d||  lg(rg) alpha_du alpha_pr  ls
 220 -2.5846761e-01 3.03e+00 1.07e+02  -7.5 1.36e+00  -2.7 1.95e-02 1.93e-02h  1
 221 -2.5846819e-01 3.03e+00 1.06e+02  -7.5 1.39e+04    -  5.79e-05 1.22e-04h  1
 222 -2.5855466e-01 3.05e+00 3.39e+02  -7.5 2.17e+05    -  5.32e-04 9.81e-04f  1
 223 -2.5861401e-01 2.91e+00 3.25e+02  -7.5 2.38e+03    -  1.17e-02 6.13e-02h  1
 224 -2.5880582e-01 3.40e+00 2.56e+02  -7.5 1.82e+03    -  1.31e-01 2.74e-01h  1
 225 -2.5903915e-01 2.68e+00 1.66e+02  -7.5 1.08e+03    -  3.18e-02 6.05e-01h  1
 226 -2.5909277e-01 1.78e+00 1.13e+02  -7.5 5.21e+02    -  2.66e-01 3.85e-01h  1
 227 -2.5909685e-01 1.10e+01 1.06e+02  -7.5 8.81e+03    -  4.08e-02 8.21e-02h  1
 228 -2.5909383e-01 1.09e+01 1.01e+02  -7.5 2.85e+03    -  5.52e-02 5.71e-03h  2
 229 -2.5917811e-01 9.27e+00 9.37e+01  -7.5 1.22e+03    -  4.64e-02 1.51e-01h  1
iter    objective    inf_pr   inf_du lg(mu)  ||d||  lg(rg) alpha_du alpha_pr  ls
 230 -2.5919374e-01 7.93e+00 7.90e+01  -7.5 1.25e+03    -  1.59e-01 1.45e-01h  1
 231 -2.5918886e-01 6.35e+00 7.77e+01  -7.5 8.83e+02    -  1.42e-02 2.00e-01h  1
 232 -2.5920173e-01 4.83e+00 5.42e+01  -7.5 7.32e+02    -  3.01e-01 2.40e-01h  1
 233 -2.5919937e-01 3.40e+00 5.17e+01  -7.5 5.06e+02    -  2.34e-02 3.00e-01h  1
 234 -2.5920160e-01 1.79e+00 4.12e+01  -7.5 3.53e+02    -  1.11e-01 4.96e-01h  1
 235 -2.5921806e-01 1.62e+00 3.81e+01  -7.5 1.58e+03    -  6.67e-02 1.03e-01h  1
 236 -2.5923495e-01 1.46e+00 3.36e+01  -7.5 1.61e+03    -  1.18e-01 1.17e-01h  1
 237 -2.5923604e-01 1.33e+00 3.15e+01  -7.5 4.12e+02    -  8.49e-02 3.40e-01h  1
 238 -2.5927625e-01 2.37e+00 2.56e+01  -7.5 3.02e+03    -  1.86e-01 1.68e-01h  1
 239 -2.5930402e-01 2.49e+00 2.57e+01  -7.5 1.33e+03    -  2.00e-02 2.69e-01h  1
iter    objective    inf_pr   inf_du lg(mu)  ||d||  lg(rg) alpha_du alpha_pr  ls
 240 -2.5933331e-01 2.54e+00 2.33e+01  -7.5 1.68e+03    -  9.72e-02 1.99e-01h  1
 241 -2.5934047e-01 2.11e+00 2.16e+01  -7.5 9.42e+02    -  9.40e-02 3.01e-01h  1
 242 -2.5934039e-01 2.09e+00 2.12e+01  -7.5 1.28e+01  -3.2 1.59e-02 9.53e-03h  1
 243 -2.5933151e-01 8.12e-02 2.23e+01  -7.5 1.29e+00  -3.7 3.14e-02 9.61e-01h  1
 244 -2.5933304e-01 8.52e-03 1.53e+00  -7.5 8.85e-02  -4.1 9.99e-01 8.95e-01f  1
 245 -2.5933512e-01 4.17e-03 1.36e+00  -7.5 1.99e-01  -4.6 1.00e+00 5.07e-01h  1
 246 -2.5933771e-01 1.28e-03 2.78e+00  -7.5 2.99e-01  -5.1 1.00e+00 6.80e-01f  1
 247 -2.5934626e-01 1.24e-03 3.23e+00  -7.5 8.86e-01  -5.6 6.49e-01 7.48e-01f  1
 248 -2.5934720e-01 1.18e-03 1.14e+01  -7.5 1.13e+00  -6.1 1.00e+00 6.54e-02f  1
 249 -2.5934831e-01 4.00e-04 4.30e+00  -7.5 6.81e-01  -6.5 1.00e+00 6.81e-01f  1
iter    objective    inf_pr   inf_du lg(mu)  ||d||  lg(rg) alpha_du alpha_pr  ls
 250 -2.5934887e-01 7.39e-05 1.94e-02  -7.5 1.99e+00  -7.0 1.00e+00 1.00e+00f  1
 251 -2.5935089e-01 5.13e-04 4.23e-04  -7.5 5.40e+00  -7.5 1.00e+00 1.00e+00h  1
 252 -2.5935587e-01 3.12e-03 2.64e-03  -7.5 1.20e+01  -8.0 1.00e+00 1.00e+00h  1
 253 -2.5935952e-01 4.47e-03 1.97e-01  -7.5 1.66e+01  -8.4 1.00e+00 6.53e-01h  1
 254 -2.5941405e-01 5.32e+00 1.15e+00  -7.5 4.22e+03    -  6.15e-02 3.00e-01f  1
 255 -2.5945951e-01 2.52e-01 1.54e+01  -7.5 1.62e+02  -8.9 1.00e+00 1.00e+00h  1
 256 -2.5939098e-01 2.91e-02 5.50e+00  -7.5 1.92e+01  -7.6 1.00e+00 1.00e+00h  1
 257 -2.5939273e-01 4.04e-03 1.01e-01  -7.5 6.55e+00  -8.1 8.81e-01 1.00e+00h  1
 258 -2.5939543e-01 7.46e-03 7.67e-03  -7.5 2.26e+01  -8.5 1.00e+00 1.00e+00h  1
 259 -2.5940135e-01 9.45e-02 5.26e-02  -7.5 2.51e+03    -  9.32e-02 7.29e-02h  3
iter    objective    inf_pr   inf_du lg(mu)  ||d||  lg(rg) alpha_du alpha_pr  ls
 260 -2.5940566e-01 2.34e-02 5.47e-02  -7.5 4.95e+01  -9.0 1.00e+00 1.00e+00h  1
 261 -2.5940628e-01 9.47e-02 5.87e-02  -7.5 3.23e+03    -  2.20e-02 2.24e-02h  4
 262 -2.5940668e-01 1.01e-01 8.06e-01  -7.5 1.66e+03    -  1.13e-01 1.24e-02h  5
 263 -2.5941090e-01 1.12e-01 1.39e-01  -7.5 7.33e+01  -9.5 1.00e+00 1.00e+00h  1
 264 -2.5941130e-01 1.17e-01 1.17e+00  -7.5 9.17e+02    -  2.46e-01 1.67e-02h  4
 265 -2.5941585e-01 7.26e-02 1.66e-01  -7.5 9.60e+01 -10.0 1.00e+00 9.57e-01H  1
 266 -2.5941850e-01 1.30e-01 8.05e-02  -7.5 3.48e+02    -  1.00e+00 1.00e+00H  1
 267 -2.5942176e-01 1.59e-01 1.77e+00  -7.5 5.99e+02 -10.4 8.51e-01 2.01e-01h  1
 268 -2.5942568e-01 1.50e-03 6.11e-03  -7.5 1.25e+02    -  1.00e+00 1.00e+00H  1
 269 -2.5942505e-01 6.96e-03 2.64e-04  -7.5 1.95e+01    -  1.00e+00 1.00e+00h  1
iter    objective    inf_pr   inf_du lg(mu)  ||d||  lg(rg) alpha_du alpha_pr  ls
 270 -2.5942509e-01 2.09e-04 1.03e-05  -7.5 3.39e+00    -  1.00e+00 1.00e+00h  1
 271 -2.5942509e-01 6.00e-08 3.39e-09  -7.5 5.74e-02    -  1.00e+00 1.00e+00h  1
 272 -2.5943015e-01 2.36e-02 2.92e+00  -9.0 3.69e+02    -  4.87e-01 1.69e-01h  1
 273 -2.5943027e-01 1.98e-02 2.71e+00  -9.0 2.17e-02  -0.6 2.18e-01 1.62e-01h  1
 274 -2.5942991e-01 8.32e-03 6.60e-01  -9.0 1.24e-02  -1.1 3.82e-01 5.80e-01h  1
 275 -2.5943021e-01 5.93e-03 1.97e+00  -9.0 6.05e-03  -1.6 7.73e-01 2.88e-01h  1
 276 -2.5943058e-01 4.87e-03 2.15e+00  -9.0 8.21e-03  -2.0 9.41e-01 1.78e-01h  1
 277 -2.5943067e-01 3.34e-03 1.61e+00  -9.0 3.04e-03  -1.6 9.83e-01 3.14e-01h  1
 278 -2.5943086e-01 1.71e-03 6.98e-01  -9.0 3.86e-03  -2.1 9.95e-01 4.88e-01h  1
 279 -2.5943088e-01 1.30e-03 7.78e-01  -9.0 1.07e-03  -1.7 1.00e+00 2.39e-01h  1
iter    objective    inf_pr   inf_du lg(mu)  ||d||  lg(rg) alpha_du alpha_pr  ls
 280 -2.5943102e-01 4.55e-04 2.33e-01  -9.0 2.54e-03  -2.1 1.00e+00 6.51e-01f  1
 281 -2.5943112e-01 2.78e-04 1.45e-01  -9.0 4.39e-03  -2.6 3.58e-01 3.88e-01f  1
 282 -2.5943118e-01 2.56e-04 1.18e-01  -9.0 1.17e-02  -3.1 1.00e+00 8.04e-02f  1
 283 -2.5943134e-01 2.13e-04 3.14e-01  -9.0 1.65e-02  -3.6 9.00e-01 1.67e-01f  1
 284 -2.5943135e-01 1.01e-04 1.49e-01  -9.0 8.86e-04  -2.2 1.00e+00 5.24e-01f  1
 285 -2.5943137e-01 6.51e-05 1.71e-01  -9.0 1.69e-03  -2.7 1.00e+00 3.59e-01f  1
 286 -2.5943143e-01 3.24e-05 9.45e-02  -9.0 5.18e-03  -3.2 1.00e+00 5.03e-01f  1
 287 -2.5943146e-01 2.55e-05 8.91e-02  -9.0 1.25e-02  -3.7 1.00e+00 2.13e-01f  1
 288 -2.5943242e-01 2.43e-03 8.99e-02  -9.0 2.78e+03    -  8.18e-02 7.33e-03f  1
 289 -2.5943243e-01 1.69e-03 8.10e-02  -9.0 5.78e-02  -4.1 1.00e+00 3.06e-01h  1
iter    objective    inf_pr   inf_du lg(mu)  ||d||  lg(rg) alpha_du alpha_pr  ls
 290 -2.5943379e-01 1.56e-02 1.68e-01  -9.0 9.88e+02    -  1.00e+00 3.53e-02h  1
 291 -2.5943379e-01 9.35e-03 3.29e-01  -9.0 1.17e+00  -4.6 1.00e+00 4.02e-01h  1
 292 -2.5943515e-01 8.99e-03 2.45e-01  -9.0 6.51e+02    -  2.61e-01 3.93e-02h  1
 293 -2.5943516e-01 8.92e-03 1.21e+01  -9.0 9.99e+01    -  6.18e-01 6.92e-03h  1
 294 -2.5943547e-01 8.32e-03 1.37e+00  -9.0 1.00e+02    -  8.52e-01 2.33e-01h  1
 295 -2.5943515e-01 8.32e-03 1.41e-01  -9.0 1.19e+02    -  8.20e-04 1.64e-04h 10
 296 -2.5943516e-01 8.32e-03 4.49e+01  -9.0 1.02e+02    -  1.00e+00 2.41e-05h  2
 297 -2.5943613e-01 1.78e-01 9.20e+02  -9.0 1.02e+02    -  4.31e-02 9.66e-01h  1
 298 -2.5943613e-01 1.74e-01 9.19e+02  -9.0 4.23e-02  -0.6 2.09e-03 2.14e-02h  1
 299 -2.5943613e-01 1.72e-01 9.11e+02  -9.0 4.14e-02  -1.1 1.77e-05 8.82e-03h  1
iter    objective    inf_pr   inf_du lg(mu)  ||d||  lg(rg) alpha_du alpha_pr  ls
 300 -2.5943612e-01 1.68e-01 8.87e+02  -9.0 4.10e-02   1.2 2.88e-02 2.63e-02h  1
 301 -2.5943612e-01 1.68e-01 8.86e+02  -9.0 3.99e-02   1.6 2.13e-02 1.01e-03h  1
 302 -2.5943612e-01 1.66e-01 8.79e+02  -9.0 3.99e-02   1.1 5.88e-03 7.80e-03h  1
 303 -2.5943611e-01 1.65e-01 8.73e+02  -9.0 3.96e-02   1.5 2.77e-02 6.72e-03h  1
 304 -2.5943610e-01 1.63e-01 8.59e+02  -9.0 3.93e-02   1.1 1.56e-02 1.69e-02h  1
 305 -2.5943609e-01 1.62e-01 8.57e+02  -9.0 3.86e-02   1.5 8.62e-02 3.98e-03h  1
 306 -2.5943603e-01 1.49e-01 7.87e+02  -9.0 3.85e-02   1.0 3.77e-02 7.99e-02h  1
 307 -2.5943592e-01 1.29e-01 6.81e+02  -9.0 3.54e-02   0.5 3.45e-01 1.35e-01h  1
 308 -2.5943588e-01 1.21e-01 6.38e+02  -9.0 3.06e-02   0.1 3.16e-01 6.03e-02h  1
 309 -2.5943555e-01 5.88e-02 3.13e+02  -9.0 2.88e-02  -0.4 1.25e-01 5.15e-01h  1
iter    objective    inf_pr   inf_du lg(mu)  ||d||  lg(rg) alpha_du alpha_pr  ls
 310 -2.5943554e-01 5.79e-02 3.09e+02  -9.0 1.40e-02   0.9 1.18e-01 1.45e-02h  1
 311 -2.5943553e-01 5.67e-02 3.06e+02  -9.0 1.38e-02   0.4 1.00e+00 2.04e-02f  2
 312 -2.5943529e-01 1.23e-02 6.58e+01  -9.0 1.35e-02  -0.0 1.00e+00 7.82e-01h  1
 313 -2.5943529e-01 1.03e-02 5.50e+01  -9.0 2.93e-03  -0.5 1.00e+00 1.68e-01h  1
 314 -2.5943539e-01 4.32e-04 2.31e+00  -9.0 2.44e-03  -1.0 1.00e+00 9.58e-01h  1
 315 -2.5943546e-01 3.67e-04 1.99e+00  -9.0 2.14e-03  -1.5 1.00e+00 1.51e-01f  1
 316 -2.5943552e-01 3.37e-04 1.83e+00  -9.0 4.07e-03  -2.0 1.00e+00 8.09e-02f  1
In iteration 316, 1 Slack too small, adjusting variable bound
 317 -2.5943565e-01 8.76e-05 4.76e-01  -9.0 2.95e-03  -2.4 7.91e-01 7.40e-01f  1
 318 -2.5943578e-01 6.41e-05 3.44e-01  -9.0 8.53e-03  -2.9 1.00e+00 2.68e-01h  1
 319 -2.5943584e-01 5.56e-05 3.03e-01  -9.0 9.72e-03  -3.4 9.80e-01 1.32e-01f  1
iter    objective    inf_pr   inf_du lg(mu)  ||d||  lg(rg) alpha_du alpha_pr  ls
 320 -2.5943603e-01 3.78e-05 3.09e-01  -9.0 1.85e-02  -3.9 1.00e+00 3.22e-01f  1
 321 -2.5943615e-01 3.41e-05 2.88e-01  -9.0 3.96e-02  -4.3 7.89e-01 9.78e-02f  1
 322 -2.5943615e-01 2.41e-05 2.15e-01  -9.0 1.66e-02  -4.8 1.00e+00 2.91e-01f  1
 323 -2.5943615e-01 2.28e-05 1.73e+00  -9.0 4.00e-02  -5.3 1.00e+00 5.45e-02f  2
 324 -2.5943614e-01 1.06e-07 4.96e-02  -9.0 5.75e-03  -5.8 9.74e-01 1.00e+00h  1
 325 -2.5943615e-01 5.18e-06 3.52e-01  -9.0 8.27e+01    -  1.00e+00 6.45e-03h  2
 326 -2.5943640e-01 1.23e-01 1.77e-03  -9.0 8.21e+01    -  1.00e+00 1.00e+00h  1
 327 -2.5943628e-01 4.04e-05 1.68e-03  -9.0 1.37e+00    -  1.00e+00 1.00e+00h  1
 328 -2.5943628e-01 2.70e-07 1.43e-01  -9.0 1.19e-02  -5.3 1.00e+00 1.00e+00h  1
 329 -2.5943627e-01 1.45e-07 8.08e-03  -9.0 9.51e-03    -  1.00e+00 1.00e+00h  1
iter    objective    inf_pr   inf_du lg(mu)  ||d||  lg(rg) alpha_du alpha_pr  ls
 330 -2.5943627e-01 6.83e-07 1.76e-01  -9.0 7.10e-02    -  1.00e+00 1.00e+00H  1
 331 -2.5943627e-01 1.02e-07 2.08e-02  -9.0 7.58e-03    -  1.00e+00 1.00e+00h  1
 332 -2.5943627e-01 1.95e-08 2.00e-03  -9.0 3.31e-03    -  1.00e+00 1.00e+00h  1
 333 -2.5943627e-01 2.83e-10 4.25e-06  -9.0 9.68e-05    -  1.00e+00 1.00e+00h  1
 334 -2.5943627e-01 2.88e-10 3.86e-10  -9.0 1.63e-06    -  1.00e+00 1.00e+00h  1

Number of Iterations....: 334

                                   (scaled)                 (unscaled)
Objective...............:  -2.5943627374264544e-01   -2.5943627374264544e-01
Dual infeasibility......:   3.8627401277580020e-10    3.8627401277580020e-10
Constraint violation....:   2.8836900846807706e-10    2.8836900846807706e-10
Complementarity.........:   9.0909092970376038e-10    9.0909092970376038e-10
Overall NLP error.......:   9.0909092970376038e-10    9.0909092970376038e-10


Number of objective function evaluations             = 498
Number of objective gradient evaluations             = 335
Number of equality constraint evaluations            = 498
Number of inequality constraint evaluations          = 499
Number of equality constraint Jacobian evaluations   = 335
Number of inequality constraint Jacobian evaluations = 335
Number of Lagrangian Hessian evaluations             = 334
Total CPU secs in IPOPT (w/o function evaluations)   =    677.608
Total CPU secs in NLP function evaluations           =     13.609

EXIT: Optimal Solution Found.
